21° run output:
{
    "Function": "kroA1000.tsp",
    "Problem dimension": [
        4,
        61,
        952,
        678,
        316,
        554,
        883,
        329,
        308,
        489,
        679,
        535,
        930,
        662,
        207,
        949,
        144,
        29,
        441,
        380,
        780,
        498,
        56,
        891,
        482,
        39,
        163,
        905,
        451,
        109,
        811,
        938,
        421,
        864,
        722,
        223,
        19,
        520,
        44,
        392,
        516,
        805,
        462,
        896,
        791,
        317,
        539,
        892,
        70,
        465,
        641,
        838,
        643,
        181,
        102,
        304,
        580,
        990,
        373,
        448,
        450,
        512,
        459,
        410,
        897,
        419,
        680,
        851,
        772,
        885,
        191,
        160,
        841,
        18,
        927,
        750,
        765,
        368,
        241,
        263,
        130,
        691,
        321,
        495,
        230,
        375,
        379,
        341,
        682,
        526,
        117,
        742,
        155,
        586,
        391,
        925,
        819,
        455,
        538,
        376,
        711,
        692,
        326,
        312,
        764,
        703,
        173,
        402,
        474,
        148,
        377,
        10,
        689,
        719,
        138,
        550,
        285,
        523,
        93,
        411,
        733,
        942,
        911,
        407,
        926,
        727,
        60,
        546,
        319,
        129,
        445,
        300,
        366,
        513,
        239,
        309,
        278,
        848,
        519,
        777,
        382,
        325,
        943,
        673,
        193,
        595,
        971,
        292,
        884,
        645,
        713,
        681,
        637,
        361,
        853,
        157,
        284,
        670,
        116,
        159,
        625,
        881,
        473,
        199,
        216,
        184,
        35,
        668,
        507,
        6,
        790,
        912,
        99,
        991,
        65,
        717,
        420,
        758,
        824,
        290,
        311,
        549,
        812,
        227,
        133,
        878,
        850,
        424,
        432,
        845,
        147,
        856,
        33,
        655,
        915,
        330,
        966,
        151,
        458,
        294,
        545,
        414,
        652,
        31,
        627,
        405,
        220,
        178,
        352,
        174,
        562,
        569,
        672,
        854,
        561,
        477,
        867,
        601,
        280,
        213,
        291,
        615,
        923,
        613,
        616,
        782,
        433,
        198,
        305,
        67,
        464,
        66,
        618,
        43,
        3,
        456,
        440,
        534,
        434,
        401,
        211,
        826,
        786,
        396,
        73,
        583,
        799,
        505,
        614,
        651,
        296,
        893,
        96,
        8,
        299,
        676,
        400,
        289,
        555,
        179,
        970,
        630,
        490,
        98,
        281,
        493,
        168,
        825,
        257,
        638,
        797,
        633,
        847,
        606,
        62,
        873,
        502,
        749,
        543,
        760,
        177,
        248,
        781,
        724,
        720,
        258,
        9,
        875,
        452,
        715,
        688,
        5,
        890,
        372,
        431,
        51,
        776,
        283,
        617,
        588,
        229,
        863,
        332,
        143,
        714,
        370,
        695,
        453,
        622,
        874,
        86,
        355,
        428,
        470,
        889,
        726,
        769,
        349,
        933,
        659,
        559,
        728,
        282,
        443,
        69,
        30,
        783,
        800,
        708,
        857,
        521,
        457,
        252,
        476,
        686,
        709,
        929,
        358,
        995,
        753,
        951,
        804,
        250,
        50,
        162,
        792,
        259,
        880,
        333,
        830,
        323,
        557,
        953,
        579,
        112,
        388,
        196,
        243,
        584,
        820,
        509,
        426,
        418,
        626,
        429,
        55,
        320,
        2,
        980,
        110,
        965,
        260,
        983,
        837,
        267,
        568,
        928,
        594,
        876,
        28,
        412,
        313,
        49,
        674,
        866,
        888,
        244,
        249,
        924,
        747,
        484,
        114,
        814,
        270,
        788,
        737,
        269,
        910,
        481,
        359,
        985,
        816,
        483,
        253,
        204,
        920,
        640,
        100,
        536,
        104,
        118,
        122,
        128,
        233,
        547,
        461,
        619,
        667,
        565,
        422,
        14,
        840,
        1,
        365,
        105,
        180,
        439,
        808,
        573,
        360,
        170,
        354,
        403,
        762,
        467,
        806,
        408,
        347,
        417,
        871,
        574,
        939,
        256,
        958,
        262,
        634,
        932,
        570,
        265,
        378,
        295,
        921,
        154,
        350,
        752,
        639,
        846,
        363,
        931,
        371,
        240,
        16,
        261,
        533,
        364,
        950,
        68,
        153,
        589,
        83,
        694,
        736,
        755,
        335,
        635,
        356,
        913,
        710,
        587,
        621,
        631,
        413,
        697,
        759,
        277,
        699,
        861,
        700,
        164,
        869,
        468,
        64,
        956,
        182,
        734,
        348,
        870,
        395,
        119,
        984,
        775,
        234,
        197,
        225,
        998,
        941,
        581,
        398,
        981,
        994,
        387,
        215,
        161,
        183,
        41,
        660,
        743,
        704,
        836,
        236,
        898,
        600,
        839,
        12,
        275,
        80,
        976,
        101,
        986,
        725,
        982,
        723,
        877,
        748,
        446,
        858,
        591,
        551,
        463,
        685,
        731,
        139,
        702,
        563,
        834,
        324,
        508,
        567,
        145,
        124,
        334,
        34,
        843,
        479,
        684,
        997,
        103,
        729,
        657,
        646,
        40,
        735,
        582,
        963,
        111,
        438,
        123,
        902,
        327,
        201,
        475,
        596,
        222,
        318,
        827,
        754,
        237,
        245,
        738,
        865,
        833,
        698,
        721,
        624,
        794,
        914,
        158,
        430,
        751,
        442,
        895,
        730,
        471,
        340,
        406,
        608,
        593,
        487,
        835,
        771,
        879,
        185,
        152,
        121,
        707,
        969,
        107,
        26,
        219,
        115,
        469,
        739,
        904,
        852,
        255,
        228,
        612,
        849,
        302,
        774,
        828,
        447,
        247,
        188,
        46,
        810,
        37,
        632,
        92,
        987,
        900,
        59,
        301,
        36,
        135,
        94,
        862,
        716,
        190,
        150,
        231,
        687,
        504,
        675,
        172,
        52,
        95,
        823,
        63,
        89,
        338,
        605,
        542,
        977,
        13,
        132,
        602,
        918,
        578,
        165,
        125,
        629,
        822,
        623,
        486,
        210,
        696,
        552,
        171,
        919,
        540,
        203,
        435,
        744,
        97,
        27,
        106,
        975,
        785,
        514,
        577,
        855,
        54,
        141,
        666,
        527,
        609,
        798,
        88,
        732,
        218,
        872,
        381,
        564,
        367,
        362,
        566,
        964,
        620,
        336,
        868,
        186,
        85,
        342,
        537,
        53,
        266,
        572,
        390,
        945,
        344,
        860,
        628,
        954,
        636,
        844,
        25,
        957,
        108,
        978,
        45,
        960,
        761,
        279,
        585,
        209,
        779,
        254,
        773,
        677,
        306,
        76,
        649,
        264,
        528,
        232,
        917,
        999,
        967,
        796,
        525,
        415,
        24,
        671,
        488,
        238,
        831,
        84,
        524,
        818,
        131,
        886,
        996,
        22,
        351,
        142,
        217,
        778,
        286,
        466,
        208,
        127,
        276,
        200,
        642,
        120,
        553,
        167,
        235,
        149,
        763,
        288,
        75,
        383,
        530,
        821,
        887,
        712,
        195,
        706,
        947,
        337,
        17,
        345,
        604,
        503,
        988,
        648,
        767,
        273,
        48,
        166,
        802,
        0,
        944,
        690,
        137,
        989,
        745,
        801,
        82,
        598,
        548,
        274,
        607,
        175,
        214,
        972,
        314,
        787,
        576,
        757,
        992,
        90,
        404,
        558,
        922,
        556,
        544,
        768,
        501,
        789,
        901,
        784,
        506,
        425,
        389,
        491,
        599,
        656,
        437,
        11,
        77,
        497,
        91,
        393,
        832,
        15,
        644,
        169,
        592,
        492,
        496,
        242,
        485,
        187,
        522,
        909,
        961,
        746,
        71,
        517,
        454,
        610,
        251,
        813,
        817,
        32,
        423,
        511,
        436,
        959,
        287,
        611,
        756,
        946,
        955,
        560,
        47,
        795,
        993,
        202,
        701,
        842,
        79,
        192,
        661,
        72,
        973,
        906,
        741,
        899,
        499,
        664,
        346,
        205,
        78,
        693,
        740,
        541,
        974,
        271,
        571,
        940,
        444,
        934,
        658,
        665,
        650,
        908,
        7,
        343,
        38,
        397,
        653,
        575,
        206,
        936,
        134,
        903,
        494,
        603,
        226,
        297,
        310,
        590,
        532,
        916,
        948,
        510,
        146,
        531,
        894,
        315,
        478,
        807,
        597,
        480,
        74,
        126,
        394,
        654,
        809,
        829,
        416,
        859,
        268,
        176,
        385,
        968,
        935,
        815,
        386,
        384,
        331,
        937,
        42,
        303,
        979,
        272,
        705,
        399,
        374,
        307,
        113,
        58,
        460,
        20,
        518,
        770,
        21,
        57,
        189,
        882,
        136,
        529,
        962,
        23,
        663,
        515,
        683,
        766,
        87,
        647,
        81,
        427,
        298,
        194,
        293,
        793,
        718,
        409,
        907,
        500,
        353,
        369,
        357,
        669,
        140,
        322,
        339,
        246,
        328,
        803,
        449,
        212,
        472,
        156,
        221,
        224
    ],
    "Global Optimum": 0,
    "Algorithm": "Genetic algorithm",
    "Parameters": {
        "population": 30,
        "offspring": 30,
        "mutation probability": 0.001,
        "crossover probability": 0.9
    },
    "Fitness": 1310034,
    "Solution": [
        4,
        61,
        952,
        678,
        316,
        554,
        883,
        329,
        308,
        489,
        679,
        535,
        930,
        662,
        207,
        949,
        144,
        29,
        441,
        380,
        780,
        498,
        56,
        891,
        482,
        39,
        163,
        905,
        451,
        109,
        811,
        938,
        421,
        864,
        722,
        223,
        19,
        520,
        44,
        392,
        516,
        805,
        462,
        896,
        791,
        317,
        539,
        892,
        70,
        465,
        641,
        838,
        643,
        181,
        102,
        304,
        580,
        990,
        373,
        448,
        450,
        512,
        459,
        410,
        897,
        419,
        680,
        851,
        772,
        885,
        191,
        160,
        841,
        18,
        927,
        750,
        765,
        368,
        241,
        263,
        130,
        691,
        321,
        495,
        230,
        375,
        379,
        341,
        682,
        526,
        117,
        742,
        155,
        586,
        391,
        925,
        819,
        455,
        538,
        376,
        711,
        692,
        326,
        312,
        764,
        703,
        173,
        402,
        474,
        148,
        377,
        10,
        689,
        719,
        138,
        550,
        285,
        523,
        93,
        411,
        733,
        942,
        911,
        407,
        926,
        727,
        60,
        546,
        319,
        129,
        445,
        300,
        366,
        513,
        239,
        309,
        278,
        848,
        519,
        777,
        382,
        325,
        943,
        673,
        193,
        595,
        971,
        292,
        884,
        645,
        713,
        681,
        637,
        361,
        853,
        157,
        284,
        670,
        116,
        159,
        625,
        881,
        473,
        199,
        216,
        184,
        35,
        668,
        507,
        6,
        790,
        912,
        99,
        991,
        65,
        717,
        420,
        758,
        824,
        290,
        311,
        549,
        812,
        227,
        133,
        878,
        850,
        424,
        432,
        845,
        147,
        856,
        33,
        655,
        915,
        330,
        966,
        151,
        458,
        294,
        545,
        414,
        652,
        31,
        627,
        405,
        220,
        178,
        352,
        174,
        562,
        569,
        672,
        854,
        561,
        477,
        867,
        601,
        280,
        213,
        291,
        615,
        923,
        613,
        616,
        782,
        433,
        198,
        305,
        67,
        464,
        66,
        618,
        43,
        3,
        456,
        440,
        534,
        434,
        401,
        211,
        826,
        786,
        396,
        73,
        583,
        799,
        505,
        614,
        651,
        296,
        893,
        96,
        8,
        299,
        676,
        400,
        289,
        555,
        179,
        970,
        630,
        490,
        98,
        281,
        493,
        168,
        825,
        257,
        638,
        797,
        633,
        847,
        606,
        62,
        873,
        502,
        749,
        543,
        760,
        177,
        248,
        781,
        724,
        720,
        258,
        9,
        875,
        452,
        715,
        688,
        5,
        890,
        372,
        431,
        51,
        776,
        283,
        617,
        588,
        229,
        863,
        332,
        143,
        714,
        370,
        695,
        453,
        622,
        874,
        86,
        355,
        428,
        470,
        889,
        726,
        769,
        349,
        933,
        659,
        559,
        728,
        282,
        443,
        69,
        30,
        783,
        800,
        708,
        857,
        521,
        457,
        252,
        476,
        686,
        709,
        929,
        358,
        995,
        753,
        951,
        804,
        250,
        50,
        162,
        792,
        259,
        880,
        333,
        830,
        323,
        557,
        953,
        579,
        112,
        388,
        196,
        243,
        584,
        820,
        509,
        426,
        418,
        626,
        429,
        55,
        320,
        2,
        980,
        110,
        965,
        260,
        983,
        837,
        267,
        568,
        928,
        594,
        876,
        28,
        412,
        313,
        49,
        674,
        866,
        888,
        244,
        249,
        924,
        747,
        484,
        114,
        814,
        270,
        788,
        737,
        269,
        910,
        481,
        359,
        985,
        816,
        483,
        253,
        204,
        920,
        640,
        100,
        536,
        104,
        118,
        122,
        128,
        233,
        547,
        461,
        619,
        667,
        565,
        422,
        14,
        840,
        1,
        365,
        105,
        180,
        439,
        808,
        573,
        360,
        170,
        354,
        403,
        762,
        467,
        806,
        408,
        347,
        417,
        871,
        574,
        939,
        256,
        958,
        262,
        634,
        932,
        570,
        265,
        378,
        295,
        921,
        154,
        350,
        752,
        639,
        846,
        363,
        931,
        371,
        240,
        16,
        261,
        533,
        364,
        950,
        68,
        153,
        589,
        83,
        694,
        736,
        755,
        335,
        635,
        356,
        913,
        710,
        587,
        621,
        631,
        413,
        697,
        759,
        277,
        699,
        861,
        700,
        164,
        869,
        468,
        64,
        956,
        182,
        734,
        348,
        870,
        395,
        119,
        984,
        775,
        234,
        197,
        225,
        998,
        941,
        581,
        398,
        981,
        994,
        387,
        215,
        161,
        183,
        41,
        660,
        743,
        704,
        836,
        236,
        898,
        600,
        839,
        12,
        275,
        80,
        976,
        101,
        986,
        725,
        982,
        723,
        877,
        748,
        446,
        858,
        591,
        551,
        463,
        685,
        731,
        139,
        702,
        563,
        834,
        324,
        508,
        567,
        145,
        124,
        334,
        34,
        843,
        479,
        684,
        997,
        103,
        729,
        657,
        646,
        40,
        735,
        582,
        963,
        111,
        438,
        123,
        902,
        327,
        201,
        475,
        596,
        222,
        318,
        827,
        754,
        237,
        245,
        738,
        865,
        833,
        698,
        721,
        624,
        794,
        914,
        158,
        430,
        751,
        442,
        895,
        730,
        471,
        340,
        406,
        608,
        593,
        487,
        835,
        771,
        879,
        185,
        152,
        121,
        707,
        969,
        107,
        26,
        219,
        115,
        469,
        739,
        904,
        852,
        255,
        228,
        612,
        849,
        302,
        774,
        828,
        447,
        247,
        188,
        46,
        810,
        37,
        632,
        92,
        987,
        900,
        59,
        301,
        36,
        135,
        94,
        862,
        716,
        190,
        150,
        231,
        687,
        504,
        675,
        172,
        52,
        95,
        823,
        63,
        89,
        338,
        605,
        542,
        977,
        13,
        132,
        602,
        918,
        578,
        165,
        125,
        629,
        822,
        623,
        486,
        210,
        696,
        552,
        171,
        919,
        540,
        203,
        435,
        744,
        97,
        27,
        106,
        975,
        785,
        514,
        577,
        855,
        54,
        141,
        666,
        527,
        609,
        798,
        88,
        732,
        218,
        872,
        381,
        564,
        367,
        362,
        566,
        964,
        620,
        336,
        868,
        186,
        85,
        342,
        537,
        53,
        266,
        572,
        390,
        945,
        344,
        860,
        628,
        954,
        636,
        844,
        25,
        957,
        108,
        978,
        45,
        960,
        761,
        279,
        585,
        209,
        779,
        254,
        773,
        677,
        306,
        76,
        649,
        264,
        528,
        232,
        917,
        999,
        967,
        796,
        525,
        415,
        24,
        671,
        488,
        238,
        831,
        84,
        524,
        818,
        131,
        886,
        996,
        22,
        351,
        142,
        217,
        778,
        286,
        466,
        208,
        127,
        276,
        200,
        642,
        120,
        553,
        167,
        235,
        149,
        763,
        288,
        75,
        383,
        530,
        821,
        887,
        712,
        195,
        706,
        947,
        337,
        17,
        345,
        604,
        503,
        988,
        648,
        767,
        273,
        48,
        166,
        802,
        0,
        944,
        690,
        137,
        989,
        745,
        801,
        82,
        598,
        548,
        274,
        607,
        175,
        214,
        972,
        314,
        787,
        576,
        757,
        992,
        90,
        404,
        558,
        922,
        556,
        544,
        768,
        501,
        789,
        901,
        784,
        506,
        425,
        389,
        491,
        599,
        656,
        437,
        11,
        77,
        497,
        91,
        393,
        832,
        15,
        644,
        169,
        592,
        492,
        496,
        242,
        485,
        187,
        522,
        909,
        961,
        746,
        71,
        517,
        454,
        610,
        251,
        813,
        817,
        32,
        423,
        511,
        436,
        959,
        287,
        611,
        756,
        946,
        955,
        560,
        47,
        795,
        993,
        202,
        701,
        842,
        79,
        192,
        661,
        72,
        973,
        906,
        741,
        899,
        499,
        664,
        346,
        205,
        78,
        693,
        740,
        541,
        974,
        271,
        571,
        940,
        444,
        934,
        658,
        665,
        650,
        908,
        7,
        343,
        38,
        397,
        653,
        575,
        206,
        936,
        134,
        903,
        494,
        603,
        226,
        297,
        310,
        590,
        532,
        916,
        948,
        510,
        146,
        531,
        894,
        315,
        478,
        807,
        597,
        480,
        74,
        126,
        394,
        654,
        809,
        829,
        416,
        859,
        268,
        176,
        385,
        968,
        935,
        815,
        386,
        384,
        331,
        937,
        42,
        303,
        979,
        272,
        705,
        399,
        374,
        307,
        113,
        58,
        460,
        20,
        518,
        770,
        21,
        57,
        189,
        882,
        136,
        529,
        962,
        23,
        663,
        515,
        683,
        766,
        87,
        647,
        81,
        427,
        298,
        194,
        293,
        793,
        718,
        409,
        907,
        500,
        353,
        369,
        357,
        669,
        140,
        322,
        339,
        246,
        328,
        803,
        449,
        212,
        472,
        156,
        221,
        224
    ],
    "Nb of functions evaluations": 200010,
    "Computational time in seconds": 2803.6445133686066,
    "Stopping criterion in evaluations": 200000
}